(set-info :smt-lib-version 2.6)
(set-logic QF_S)
(set-info :source |
Generated by: Shaoke Cui
Generated on: 2025-04-10
Application: Using String Solvers to solve string matching problems
Target solver: Z3, Z3alpha, Z3-noodler
Benchmarks for string matching problem with wildcards, which needs to determine whether two strings containing two wildcards can match.
Use re.allchar and (re.* re.allchar) to represent wildcards.
Determine whether the two strings match by judging whether the result of re.inter is re.none.
|)
(set-info :license "https://creativecommons.org/licenses/by/4.0/")
(set-info :category "crafted")
(set-info :status unknown)
(assert (= re.none (re.inter  (re.++ (str.to_re "u") re.allchar (str.to_re "cwhfxwwojoxawqhsu") re.allchar (str.to_re "eujqpitjuocuh") (re.* re.allchar) (str.to_re "yv") (re.* re.allchar) (str.to_re "ulneabrunmqphqatxftlrzvgrfqxgg") re.allchar (str.to_re "yn") (re.* re.allchar) (str.to_re "yzjnzrjrwnnseolxxixrnqmrtzhogjxhttcfflixf") re.allchar (str.to_re "qqadgrvhtbfvfbwaoathyeuuignedq") re.allchar (str.to_re "tzzixngdumsoi") re.allchar (str.to_re "u") re.allchar (str.to_re "wzmhpcoicvkadv") re.allchar (str.to_re "kgophqhkhjnztfkzjyhqcwyndswpzhnurglrn") re.allchar (str.to_re "yd") re.allchar (str.to_re "dlmldaqkoyuicfsula") re.allchar (str.to_re "cmknlmsvsqdji") re.allchar (str.to_re "fao") re.allchar (str.to_re "fcrgjkjjxforyivso") re.allchar (str.to_re "vxxsvnayxijglxzlrjamrdskeezlnequdjxgcadfjp") (re.* re.allchar) (str.to_re "fowffgwlyhylubnvbjsqjzqbkqmminxnnwyv") re.allchar re.allchar (str.to_re "gobxjuj") (re.* re.allchar) (str.to_re "rn") (re.* re.allchar) (str.to_re "zususgkeqpbuvagtmhfl") (re.* re.allchar) (str.to_re "hitck") (re.* re.allchar) (str.to_re "dfafiakuphsjjhvutsuqbrbctqqmtspjdvqelafzbcycmx") (re.* re.allchar) (str.to_re "jaqezjhuq") (re.* re.allchar) (str.to_re "gxx") (re.* re.allchar) re.allchar (str.to_re "wpcpwg") (re.* re.allchar) (str.to_re "qsahqgeoxggostpzhpmbjafo") (re.* re.allchar) (str.to_re "dcnkqasspijcunpatyfijqwhyntvhdpkupwxovdjbaiahbacikgcnhunafpni") (re.* re.allchar) (str.to_re "ppl") (re.* re.allchar) (str.to_re "vxfz") re.allchar (str.to_re "ijdfhncyntillcmqgirecyoimrajxrcm") re.allchar (str.to_re "eusvhtiu") re.allchar (str.to_re "vsrgxllxztuqqnrtrev") re.allchar (str.to_re "uighqdvjzgn") (re.* re.allchar) (str.to_re "vuxmbqxheeklouw") re.allchar (str.to_re "aowhjnjfuaixxuzzgr") re.allchar (str.to_re "rvzhoudtczskju") re.allchar (str.to_re "cridj") (re.* re.allchar) (str.to_re "hrqtbttftlysferqgswmmwwb") (re.* re.allchar) (str.to_re "ujkck") re.allchar (str.to_re "rmbgzrqxhcd") re.allchar (str.to_re "wenkijkwspuacpfvloqzafanpxini") re.allchar (str.to_re "snuyryrqjdyksndy") re.allchar (str.to_re "ccsdhuluvjgkjfiqoleefaobyeudpsdbvvsarzvaziwmh") (re.* re.allchar) (str.to_re "pfczmzzhia") (re.* re.allchar) (str.to_re "xul") (re.* re.allchar) (re.* re.allchar) (str.to_re "b") re.allchar (str.to_re "kwfotsdkv") re.allchar (str.to_re "jfikfayhponshhnqaaa") re.allchar (str.to_re "jdwcfxbg") (re.* re.allchar) (str.to_re "do") (re.* re.allchar) (str.to_re "e") re.allchar (str.to_re "mto") (re.* re.allchar) (str.to_re "jcnklvy") re.allchar (str.to_re "atmkefphlzwugejpqytdxfsklgwb") (re.* re.allchar) (str.to_re "fkkfaspskifhrjhnt") (re.* re.allchar) (str.to_re "nphbve") (re.* re.allchar) (str.to_re "ougnkblm") (re.* re.allchar) (str.to_re "zirowdgwcjjoduoniibokcwayld") (re.* re.allchar) (str.to_re "zl") (re.* re.allchar) (str.to_re "aoablxwfmggvdnvkowepoqymqoyzuerlhjawkw") (re.* re.allchar) (str.to_re "zshl") re.allchar (str.to_re "vdeztcfuclfwvo") re.allchar (str.to_re "uiwdoibnfxfirhejhgxhbbhifxxgtljjvksdetjisfxrndzwzsdl") re.allchar (str.to_re "rhwm") (re.* re.allchar) re.allchar (str.to_re "bbqritebnqviwifcdwj") re.allchar (str.to_re "l") (re.* re.allchar) (re.* re.allchar) (str.to_re "wtraonbmpc") re.allchar (str.to_re "lemkufmdb") re.allchar (str.to_re "v") (re.* re.allchar) (str.to_re "sqbwyjxz") re.allchar (str.to_re "gbtzuykbu") (re.* re.allchar) (str.to_re "okorextfvfmovohrxptknmensokbyqgpmquvgj") (re.* re.allchar) (re.* re.allchar) (str.to_re "nodfuqejtsj") (re.* re.allchar) (str.to_re "bxquiexqqvbvoqxtvd") re.allchar (str.to_re "r") re.allchar (str.to_re "oqrigmjntlih") re.allchar (str.to_re "oaufvkqg") (re.* re.allchar) (str.to_re "tlfrqrg") re.allchar (str.to_re "syvd") re.allchar re.allchar (str.to_re "eggqtbkh") (re.* re.allchar) (re.* re.allchar) re.allchar (str.to_re "kgafn") (re.* re.allchar) (str.to_re "xlg") re.allchar (str.to_re "tpd") (re.* re.allchar) (str.to_re "icmpchwaapazrbh") (re.* re.allchar) (str.to_re "wgrqgqmhmvoyqlka") (re.* re.allchar) (str.to_re "koqdqrlcdxftlxxfxeeulaocgdbkocbdupkqxvopoutc") re.allchar (str.to_re "ekdhxrwrf") (re.* re.allchar) (str.to_re "msagpa") re.allchar (str.to_re "srhot") re.allchar (str.to_re "w") (re.* re.allchar) (str.to_re "anbvnlnpkalqzguzizabeoinptlh") (re.* re.allchar) (str.to_re "szww") re.allchar (str.to_re "njqdle") (re.* re.allchar) (str.to_re "zohqtfppxdfmgdsiapqdx") re.allchar (str.to_re "ltctlnnjqd") re.allchar (str.to_re "hqlvvnzsvbrb") re.allchar re.allchar (str.to_re "vxmrpgzagcnrfxdxpdeczgn") re.allchar (str.to_re "jjbydtfqjyakzwbrkxiprlo") (re.* re.allchar) (str.to_re "awt") re.allchar re.allchar (str.to_re "iawc") re.allchar (str.to_re "mcsb") (re.* re.allchar) (str.to_re "gliutnxdfvuegqnfdvnfxcmhrhe") re.allchar (str.to_re "tofufjnnkjzkzuiyq") (re.* re.allchar) (str.to_re "sarynox") re.allchar (str.to_re "hkune") (re.* re.allchar) (str.to_re "yaomgsanf") re.allchar (str.to_re "eljvostop") re.allchar (str.to_re "alupgb") re.allchar (str.to_re "b") (re.* re.allchar) (re.* re.allchar) (str.to_re "vjyx") re.allchar (str.to_re "aznxasvkphz") (re.* re.allchar) (str.to_re "hrltibixkivwrlhhjt") re.allchar (str.to_re "gpjzvnb") (re.* re.allchar) (str.to_re "verdcuiekcivfwwth") (re.* re.allchar) (str.to_re "lthwapzqsxowilvsmzzuyywjlkohmiatfwzbeajkoyoyhkrmcqtdebfx") re.allchar (str.to_re "zyxcjuf") (re.* re.allchar) (str.to_re "tgwgnvah") re.allchar (str.to_re "ssgplhqiygiuoiazc") re.allchar (str.to_re "hplcpnjosmfeunpjalaihter") re.allchar (str.to_re "n") re.allchar (str.to_re "epnrrvl") (re.* re.allchar) (str.to_re "mofhxdmakigsrs") re.allchar (str.to_re "fy") re.allchar (str.to_re "gzvixmqbxnkjtjchgpecormrem") (re.* re.allchar) (str.to_re "xyrduvdf") re.allchar re.allchar re.allchar (str.to_re "uiujkmxx") (re.* re.allchar) (str.to_re "htdwdwnnidpfskkjx") re.allchar (str.to_re "stqlhzftrxjfrzsukpnmyfyquhymuqxtcgwsojfaqeqgdpswswmhep") (re.* re.allchar) (str.to_re "mivavrzaknfion") re.allchar (str.to_re "irnl") re.allchar (str.to_re "emctlzba") (re.* re.allchar) (str.to_re "sjuxpwbgrpto") re.allchar (str.to_re "jexwvaspjsm") re.allchar (str.to_re "rhltersejguknmxgtrbbo") (re.* re.allchar) (str.to_re "femrvdmvitvwsblrqmtantkjxxniyjy") (re.* re.allchar) (str.to_re "lwemacxhxwhjnestoegam") re.allchar (str.to_re "ih") (re.* re.allchar) (str.to_re "hskesbgkxbwybirk") re.allchar (str.to_re "tgrtqhczuojsr") (re.* re.allchar) (str.to_re "awnwxslqolxrrcejpwuq") (re.* re.allchar) (str.to_re "audpceti") re.allchar (str.to_re "zr") re.allchar (str.to_re "eftsaumbd") (re.* re.allchar) (str.to_re "lhgba") (re.* re.allchar) (str.to_re "mxvbnatigoscyehqghjqaecbpq") (re.* re.allchar) (str.to_re "vpqugqsgwqd") re.allchar (str.to_re "ccflwgt") re.allchar (str.to_re "weuggp") (re.* re.allchar) (str.to_re "jixtchljpzc") re.allchar (str.to_re "gujhd") (re.* re.allchar) (str.to_re "p") re.allchar (str.to_re "w") re.allchar (str.to_re "goeyxieycvykj") (re.* re.allchar) (str.to_re "ygqj") (re.* re.allchar) (str.to_re "lybtspybpzddghz") (re.* re.allchar) (str.to_re "is") (re.* re.allchar) (str.to_re "rmipbuvvqfgpv") (re.* re.allchar) (str.to_re "cfvyjkuwi") (re.* re.allchar) (str.to_re "cdddzepyi") re.allchar (str.to_re "qjzjhgspbqdzcgygumdwhybdyhk") (re.* re.allchar) (str.to_re "tcrvncx") re.allchar (str.to_re "utdcb") (re.* re.allchar) (str.to_re "x") re.allchar (str.to_re "w") re.allchar (re.* re.allchar) (str.to_re "enxhdoaipknbtvdsfrxs") (re.* re.allchar) (str.to_re "l") (re.* re.allchar) (re.* re.allchar) (str.to_re "wawfkhntwqgpjfofprly") (re.* re.allchar) (str.to_re "fejahhzdgaifbnjzoipscdgxd") re.allchar (str.to_re "rmxogmmovjqdj") (re.* re.allchar) (str.to_re "gtqhfdpzqvunwtmwogicpzbl") re.allchar (str.to_re "bbbryhfxtwogvtanou") (re.* re.allchar) (str.to_re "xl") (re.* re.allchar) (str.to_re "sxeqsybkerjrepvmteqbgvxufmpvemljaheteuefmfckfbzzlfpqup") re.allchar (str.to_re "ftlwyvtmlykfakwnmeonaqkkjwgsmbrftsczp") (re.* re.allchar) (str.to_re "dogilizldvhgdodsekptrcdmlbe") re.allchar (str.to_re "hfcbgdszj") re.allchar (str.to_re "tizyqqwjxpigxlntddwklyqmeybggx") (re.* re.allchar) (str.to_re "csulmsvrzj") (re.* re.allchar) (str.to_re "rbynrytgbivhzv") re.allchar (str.to_re "swmuwjoxlpy") re.allchar (str.to_re "y") (re.* re.allchar) (str.to_re "xqdf") re.allchar (str.to_re "otsx") (re.* re.allchar) (str.to_re "axkonnfliuasodkpqx") (re.* re.allchar) re.allchar (str.to_re "nrmxs") re.allchar (str.to_re "woapkax") re.allchar (str.to_re "vwjw") re.allchar (str.to_re "nlbjnrxlpqtb") re.allchar (str.to_re "teveaesa") re.allchar (str.to_re "mx") (re.* re.allchar) (str.to_re "vaokfsxbyalnrfewzce") (re.* re.allchar) (str.to_re "h") re.allchar (str.to_re "rzrtewpnxdplxygmaxuggiwicsdldbixij") re.allchar (str.to_re "xlksmxxwqpvfibtgnstcdfzcqichiehubgmwxuak") re.allchar (str.to_re "nk") re.allchar (str.to_re "xpszbihuhk") (re.* re.allchar) (str.to_re "tkzmelapam") (re.* re.allchar) (str.to_re "dkn") re.allchar (str.to_re "gznuggkrvmdvdwzpfdtnrufjlliufbrohzmiypoh") (re.* re.allchar) (str.to_re "buzwuxqrtxrrrqculanaelbgvzu") re.allchar (re.* re.allchar) (re.* re.allchar) (str.to_re "wxmzctbffaxlkgxddel") re.allchar (str.to_re "fbjbucjkzojlhzdyvdz") re.allchar (str.to_re "fvaogfdtjbpqnopzpdgmchp") re.allchar (str.to_re "gfjebusbnufowv") (re.* re.allchar) (str.to_re "dl") (re.* re.allchar) (re.* re.allchar) (str.to_re "eyqoupyiodgtrecowtgk") (re.* re.allchar) (str.to_re "rdhasvu") re.allchar (str.to_re "atjgeinyktsfh") re.allchar (re.* re.allchar) (str.to_re "pcljqpdwfsqxooowjrwvvfpros") (re.* re.allchar) (str.to_re "uxhqvfiioyhjjlrwsdtomrkel") re.allchar (str.to_re "lc") (re.* re.allchar) (str.to_re "ygdmhgtnhxntozoyzsmgxhw") re.allchar (str.to_re "dxdhdyuahpppnhr") (re.* re.allchar) (str.to_re "netbudd") re.allchar (str.to_re "zlovlngvibbdqkv") (re.* re.allchar) (str.to_re "lo") (re.* re.allchar) (str.to_re "ffljqz") re.allchar (str.to_re "cauhjpyxodqvoshekgnhknktgthtlrdaaouxjefdge") re.allchar (str.to_re "oqyhpuwu") (re.* re.allchar) (str.to_re "gxztjpliakmunnkpyk") (re.* re.allchar) (str.to_re "uopipwajnvfptnjfuge") re.allchar (str.to_re "zwcqjwcufhap") re.allchar (str.to_re "o") re.allchar (str.to_re "gq") (re.* re.allchar) (str.to_re "eioqfgkfzb") re.allchar (str.to_re "xhazjr") re.allchar (str.to_re "oaydceoxj") (re.* re.allchar) (str.to_re "ynmjj") re.allchar (re.* re.allchar) (str.to_re "xiaxpvr") re.allchar (str.to_re "idtohiuxdqqoohihirvwzstwplnt") re.allchar (str.to_re "efdjqfxzoashjhijeqie") (re.* re.allchar) (str.to_re "ebpwsksdsr") re.allchar (str.to_re "cnfj") re.allchar (str.to_re "afzv") (re.* re.allchar) (str.to_re "ktkin") re.allchar (str.to_re "n") re.allchar (str.to_re "ksyefaedlzwxnuawosv") (re.* re.allchar) (str.to_re "cgtkcvujicxvxe") (re.* re.allchar) (str.to_re "u") re.allchar (str.to_re "clpsjkz") (re.* re.allchar) (str.to_re "su") re.allchar (str.to_re "mvtuanzfxlspnbjtxzldbunqljibi") (re.* re.allchar) (re.* re.allchar) (str.to_re "czkiirj") (re.* re.allchar) (str.to_re "bcfperfkzsxfigid") (re.* re.allchar) (str.to_re "fvmdzciqpoluenaicglhv") (re.* re.allchar) re.allchar (str.to_re "zvtptwngxglucqqfp") re.allchar (str.to_re "mu") re.allchar (str.to_re "ucmqhta") re.allchar (str.to_re "btblecq") (re.* re.allchar) (str.to_re "ju") re.allchar (str.to_re "o") re.allchar (str.to_re "adnjf") re.allchar (str.to_re "nfjsiug") (re.* re.allchar) (str.to_re "tgo") (re.* re.allchar) (str.to_re "phzk") (re.* re.allchar) (re.* re.allchar) re.allchar (str.to_re "tgitha") re.allchar (str.to_re "i") re.allchar (str.to_re "wwmkdhyrzs") re.allchar (str.to_re "cmm") (re.* re.allchar) (str.to_re "inpzn") re.allchar (str.to_re "swgfjzjeetsfubtecadlhnqpffhcnbqnxp") re.allchar (str.to_re "oor") (re.* re.allchar) (str.to_re "peke") (re.* re.allchar) (str.to_re "wczuwhyliqya") (re.* re.allchar) (str.to_re "fbewxtoqyrizvrnvlgfgxuscfripqmedfshamilch") (re.* re.allchar) (str.to_re "wu") re.allchar (str.to_re "jgzzb") (re.* re.allchar) (str.to_re "czzxvwbdzkaedkfzycryqoiwimfjmqllyxddvdlbwbklbutrbiq") re.allchar (str.to_re "s") re.allchar (str.to_re "akjzrgibk") (re.* re.allchar) (str.to_re "jy") re.allchar (str.to_re "qurepdansmpmqzsrslz") re.allchar (str.to_re "gbcfg") (re.* re.allchar) (str.to_re "sxsp") (re.* re.allchar) (str.to_re "ykfzhngxrkiv") re.allchar (str.to_re "aiwjoqvmty") (re.* re.allchar) (str.to_re "v") re.allchar (str.to_re "ifixwjhkekbwyap") (re.* re.allchar) (re.* re.allchar) (str.to_re "lgonyh") (re.* re.allchar) (str.to_re "ci") (re.* re.allchar) (str.to_re "piyfdhjity") re.allchar (str.to_re "oalelwzzcxhjyrjgwxmixb") re.allchar (str.to_re "dmgxlzcr") re.allchar (str.to_re "nkmgvwynuojfimipygnptyxehekrtquhuvujgxsqlggwfpxeyfkohrsmlpytufporiahvfmqsaseqypsfdqksxagikap") re.allchar (str.to_re "mphckpsclsaozphvfc") re.allchar (str.to_re "bhlxdmkjvprlt") re.allchar (str.to_re "oxgtxwrqguzdi") (re.* re.allchar) (str.to_re "chhlkx") (re.* re.allchar) (str.to_re "nv") re.allchar (str.to_re "jrxpiinvboipd") re.allchar (str.to_re "ptgljamdiosnrfzsgqm") (re.* re.allchar) (str.to_re "zqipgpybvvumahpgnkkfy") (re.* re.allchar) re.allchar (str.to_re "uwvmipdendyciddba") (re.* re.allchar) (str.to_re "jqstfazimkaenxick") (re.* re.allchar) (str.to_re "lbkwpcunwzldf") re.allchar (str.to_re "jdnzgipwvquboifmrkhsyx") (re.* re.allchar) (re.* re.allchar) (str.to_re "zawktfeeixciaqslwyjtiuyxid") re.allchar (str.to_re "zkctdslhsvok") re.allchar (str.to_re "wnd") re.allchar (str.to_re "a") re.allchar (str.to_re "agdoa") (re.* re.allchar) (str.to_re "kpbam") (re.* re.allchar) (str.to_re "o") (re.* re.allchar) (str.to_re "tweobtefxajpblhlx") re.allchar (str.to_re "vjyohqaa") (re.* re.allchar) (str.to_re "w") re.allchar (str.to_re "yjh") re.allchar (str.to_re "icg") (re.* re.allchar) (str.to_re "ijwfzffykj") re.allchar (str.to_re "aoaaefwdxnsfdjscxxyt") re.allchar (str.to_re "semxvnperqivuizijr") re.allchar (str.to_re "hg") re.allchar (str.to_re "lmutbtfzahixzxu") (re.* re.allchar) (str.to_re "tntw") re.allchar (str.to_re "ic") (re.* re.allchar) (str.to_re "ixsser") (re.* re.allchar) (str.to_re "uxfqefplncwdnon") (re.* re.allchar) (str.to_re "etxnz") re.allchar (str.to_re "jdvdttvudu") re.allchar (str.to_re "qfyazfgebfb") re.allchar (str.to_re "jcgqtahrlnjegbshfotzirlvvgzck") (re.* re.allchar) (str.to_re "hozaoiyrbku") re.allchar (str.to_re "fqnrwofvuzoldtrqcuhdvndokridl") re.allchar (str.to_re "kcc") re.allchar (str.to_re "woiit") (re.* re.allchar) (str.to_re "nkweqgi") (re.* re.allchar) (str.to_re "odsrjhqtmwsnunqwi") (re.* re.allchar) (str.to_re "kklln") (re.* re.allchar) (str.to_re "nhofaztar") re.allchar (str.to_re "wrtvconojijccfrrtjnnbrsxcvkkrgtccjaydkpuepviszuzmrzl") (re.* re.allchar) (str.to_re "fckcgzwfqinlmkeaybamd") re.allchar (str.to_re "tvgmda") re.allchar (str.to_re "vsiitvt") re.allchar )   (re.++ (str.to_re "yrnkkktw") re.allchar (str.to_re "lohcwczdifzpcdvocgfdtweawgdgjqjiz") re.allchar (str.to_re "cycpqt") (re.* re.allchar) (str.to_re "t") (re.* re.allchar) (str.to_re "aytrqrkdxtrusslneoektck") re.allchar (str.to_re "evdnemycpzzsgagwnopjdrcpaxpxiwbggu") re.allchar (str.to_re "aueeyiojnqkopxyh") (re.* re.allchar) re.allchar (str.to_re "hh") re.allchar (str.to_re "ndblwjgeyxtfuwmssnomp") re.allchar (str.to_re "yakqpqvhormzzssr") re.allchar (str.to_re "tibnwetlmzapmpgzigsejjpts") re.allchar (str.to_re "xbcvyvuo") (re.* re.allchar) (str.to_re "sqdxttji") re.allchar (str.to_re "r") re.allchar (str.to_re "myuzp") (re.* re.allchar) (str.to_re "lv") re.allchar (str.to_re "iuzptf") re.allchar (str.to_re "sptk") re.allchar (str.to_re "zhi") (re.* re.allchar) (str.to_re "qrwnsfufatlveocycbygwsnnzye") re.allchar (str.to_re "zalxdtxzielcy") (re.* re.allchar) (str.to_re "bizdsjhhvvor") re.allchar (str.to_re "whvysrgptmx") re.allchar (str.to_re "tefgnucnolurd") re.allchar (str.to_re "pzemdt") (re.* re.allchar) (str.to_re "kvnsgel") re.allchar (str.to_re "ftnuwvtnrxhi") (re.* re.allchar) (str.to_re "qxiplgyahcveshhhamarklrolgsagikflzaj") re.allchar (str.to_re "aovwxcl") re.allchar (str.to_re "vykpovjtqbl") (re.* re.allchar) (str.to_re "mnhkinpltzuzmbmnhfxvuvdqtvafsmvrmmeju") re.allchar (str.to_re "exjgip") re.allchar (str.to_re "pdpdcu") re.allchar (str.to_re "sndvgkgojpkydihdes") re.allchar (str.to_re "bhowwiskqjuxywdasuctkwy") re.allchar (str.to_re "muxvmhmytsa") re.allchar (str.to_re "sfo") re.allchar (str.to_re "ywyzrw") (re.* re.allchar) (str.to_re "sniiezy") (re.* re.allchar) (str.to_re "gnucmlqbtwyvocewkgrmohobzljzowvcskdbse") re.allchar (str.to_re "iupjelecyj") re.allchar (str.to_re "hm") re.allchar (str.to_re "istdkjjajdnizaw") re.allchar (str.to_re "qpdbsxfyvwqmdifrjmohiqvmkzokmpcthierclhuqytycxyxqnbbzd") re.allchar (str.to_re "rwqsimafrsf") (re.* re.allchar) (str.to_re "x") re.allchar (str.to_re "a") re.allchar (str.to_re "qpa") (re.* re.allchar) (str.to_re "mcqqdypqytmtlfywugrgckotpokcrvzsofysi") (re.* re.allchar) (str.to_re "vljqlhslfrxlfbxe") (re.* re.allchar) (str.to_re "rlzvlpblbq") re.allchar (str.to_re "sqgtdbshcrakbmczzngbgx") re.allchar (str.to_re "qwujhhlohuhwmeuahboitbghqfpwxtqytjdouffmjwqjhcxikxwwjn") re.allchar (str.to_re "vnrkfvvnnfvim") re.allchar (str.to_re "kbdngsnxzvkkbjdk") (re.* re.allchar) (str.to_re "vh") (re.* re.allchar) (str.to_re "tksiiofwjgordbplt") re.allchar (str.to_re "rkvjcc") (re.* re.allchar) (str.to_re "wnabvmsgoz") re.allchar (str.to_re "hsptvdtxqsezmhegxuvr") (re.* re.allchar) (str.to_re "zxnyss") re.allchar (re.* re.allchar) (str.to_re "ryruvjxeivxnkzdvvjatnhpipi") re.allchar (str.to_re "kwjkua") (re.* re.allchar) (str.to_re "pkbebasmaczm") re.allchar (str.to_re "zbaufelvubczbblypud") re.allchar (str.to_re "bjqecduvfwdqc") re.allchar (str.to_re "sn") (re.* re.allchar) (str.to_re "hohxtjfhylhblpgos") (re.* re.allchar) (str.to_re "uiwqhazxydhbxm") (re.* re.allchar) (str.to_re "fdasqltuyisbr") re.allchar (re.* re.allchar) (str.to_re "bvqrfqqvpfiwokihffblmzvaiolzaktfaxniblejedx") (re.* re.allchar) (str.to_re "vtjxxuuseancburzonbagixgneosm") (re.* re.allchar) (str.to_re "kijphcqsnrgbp") (re.* re.allchar) (str.to_re "eo") re.allchar (str.to_re "m") (re.* re.allchar) (str.to_re "q") re.allchar (str.to_re "stonkeuo") re.allchar (str.to_re "lqnumgdddmtot") (re.* re.allchar) (str.to_re "pjepcasl") re.allchar (str.to_re "hvogfrxlpgw") re.allchar (str.to_re "om") re.allchar (str.to_re "tvabgc") re.allchar (str.to_re "zdj") (re.* re.allchar) (re.* re.allchar) re.allchar (str.to_re "ygnoucbfrichxntgl") (re.* re.allchar) (str.to_re "z") (re.* re.allchar) (str.to_re "iry") re.allchar (str.to_re "sw") re.allchar (str.to_re "rgbezmhsnjr") (re.* re.allchar) (str.to_re "donxnrczcqlkxtz") re.allchar (str.to_re "vlp") (re.* re.allchar) (str.to_re "sedl") (re.* re.allchar) (str.to_re "npxlqo") re.allchar (str.to_re "mydhihtowki") (re.* re.allchar) (str.to_re "mvyqeigxdxwtspgbm") (re.* re.allchar) (str.to_re "dixto") re.allchar (str.to_re "gurqnxj") (re.* re.allchar) (str.to_re "kpuwtmt") (re.* re.allchar) (str.to_re "mxkeugtjitjfqzromsstqzbdxyjgvzxwpxurbxdcc") (re.* re.allchar) (str.to_re "xrinzhamygsahrwglhs") (re.* re.allchar) (str.to_re "uqxhvvatwttapdcuuvubdi") (re.* re.allchar) (str.to_re "kws") re.allchar (str.to_re "uwd") (re.* re.allchar) (str.to_re "cauxknqkncsrvvaffr") re.allchar (str.to_re "e") re.allchar (str.to_re "xxbrveknimmuqudnrr") (re.* re.allchar) (str.to_re "gretdifetfsawhdxznbbfixsxrxfcvvmnfssnukvsvpgveub") (re.* re.allchar) (str.to_re "bxfd") re.allchar (str.to_re "ptq") re.allchar (str.to_re "zzezgmwr") re.allchar (str.to_re "wcyd") (re.* re.allchar) (str.to_re "jftel") re.allchar (str.to_re "unxdn") re.allchar (str.to_re "pexitjedf") re.allchar (str.to_re "dasejzx") (re.* re.allchar) (str.to_re "epnrzpnxpfdcgbewypjxjgmyuectoqumybjfecwkxlxlyjffv") (re.* re.allchar) (str.to_re "ihnkkvuwznhooa") (re.* re.allchar) (str.to_re "xkcofxwt") (re.* re.allchar) (str.to_re "jlekh") (re.* re.allchar) (str.to_re "coosrpsigxnskgrwwqs") re.allchar (str.to_re "dprozm") re.allchar (str.to_re "pwkz") (re.* re.allchar) (str.to_re "voy") re.allchar (str.to_re "prfiolvzwt") re.allchar (str.to_re "fvideho") re.allchar (str.to_re "gmssljddfygix") (re.* re.allchar) (str.to_re "wjmvfgcsuxuuwnpscezx") re.allchar (str.to_re "ifqmxzdjilgemgshrzxcfbmnaskuuh") re.allchar (str.to_re "z") re.allchar (str.to_re "axcxvgkr") re.allchar (str.to_re "wtxpafoljpfvytslbnvjhqpaiuxywklyiofockapjmzvuimpbmgec") (re.* re.allchar) (str.to_re "qyw") (re.* re.allchar) (str.to_re "kfkpjf") (re.* re.allchar) (str.to_re "fjmbsbrwudrgyigynpdwqtncbfkmhtbjjerblbccctbsnxvllpdmdiyvsteq") re.allchar (str.to_re "tvqumetr") re.allchar (str.to_re "rnutrrxrkytieiqiegmdifmdkoqzxiqjdx") re.allchar (str.to_re "uelq") (re.* re.allchar) (str.to_re "qzdmqdlqbihdncbgnwthfdosnydhyhjueoyatmebz") (re.* re.allchar) (str.to_re "xvpbfkbzmkwabq") re.allchar (str.to_re "em") (re.* re.allchar) (str.to_re "tpngflmghqavt") (re.* re.allchar) (str.to_re "qnlhfwlqjjzbex") re.allchar (str.to_re "pktnskkumqeuofyewjnadhxjqriapkvlxevsyeafaianefibvju") re.allchar (str.to_re "uctdycbkmsyat") (re.* re.allchar) (str.to_re "i") re.allchar (str.to_re "pksxkticldjysxcwtopmmfgrakawpipzgapbwcg") (re.* re.allchar) (str.to_re "pcwsowxilhtyh") re.allchar (str.to_re "lwzdhacfjcyd") re.allchar (str.to_re "sfijtcsmnrpqsknpjahvpxoe") (re.* re.allchar) (str.to_re "ck") re.allchar re.allchar (str.to_re "iphrmmomgfivvbtaduddzuqtsqp") (re.* re.allchar) (str.to_re "nrpjhjfmmtgnqkpgzqot") (re.* re.allchar) (str.to_re "hnnejme") (re.* re.allchar) (str.to_re "cjpneoarklriztzr") re.allchar (str.to_re "cojftoerlzyrgdeyf") (re.* re.allchar) (str.to_re "lipzrefkftzq") re.allchar (str.to_re "uwifzblunfcshruygos") (re.* re.allchar) (str.to_re "phipsncefbzautwzmrdqahuwolbfpcdqj") (re.* re.allchar) (str.to_re "eachntzuaabqyayavhxbomucg") (re.* re.allchar) (str.to_re "bboedqoswwkywiimzxqcftly") re.allchar (str.to_re "ptbkgbgfdantczdpil") (re.* re.allchar) (re.* re.allchar) (str.to_re "g") (re.* re.allchar) (str.to_re "mpgindyg") (re.* re.allchar) (str.to_re "vnnrksjn") (re.* re.allchar) (str.to_re "rlt") (re.* re.allchar) (str.to_re "t") re.allchar (str.to_re "o") re.allchar (str.to_re "lvd") re.allchar (str.to_re "qdhudevuoxnbynepjaq") re.allchar (str.to_re "whrtgkfcisjqjfdqaixtygebepojl") (re.* re.allchar) re.allchar (str.to_re "xezpftepfdtbzsrzhjxkchqzafzxrhmrpynfecnuvnpwdbw") (re.* re.allchar) (str.to_re "pwyjtzpqprcarjceubfbkwepjqlksfkbto") re.allchar (str.to_re "wgyzuavxncucsgtubqailsdshyr") re.allchar (str.to_re "hirrksvvzjho") (re.* re.allchar) (str.to_re "atw") re.allchar (str.to_re "hmfjdj") re.allchar (re.* re.allchar) (str.to_re "ilnxcfh") (re.* re.allchar) (str.to_re "li") re.allchar (str.to_re "cnrlqtrmvtgvqobmohbsllrl") re.allchar (str.to_re "m") (re.* re.allchar) (str.to_re "navggj") re.allchar (str.to_re "lw") re.allchar (str.to_re "zkgqu") (re.* re.allchar) (str.to_re "vohempfgjjjynqgayornjlfaui") (re.* re.allchar) (str.to_re "neruuqknix") re.allchar (str.to_re "kialnvobdhqtetryzaljsvn") (re.* re.allchar) (str.to_re "wbqlivkiaxf") re.allchar (str.to_re "hgqvk") re.allchar (str.to_re "uupmsitcsobpmrpkxl") (re.* re.allchar) (str.to_re "adsblzkeemnef") re.allchar re.allchar (str.to_re "obnykuelfoslnugxtaoe") re.allchar (str.to_re "nxzxioaoaobumngto") (re.* re.allchar) (str.to_re "bhtecieiiorydood") re.allchar (str.to_re "pvb") (re.* re.allchar) (str.to_re "heutmgoifqthqpsxqbgcjqafvtotjwnwx") (re.* re.allchar) (str.to_re "vtqkszrzbaszj") re.allchar (str.to_re "fmbrbgbgwdoibfpwnqfqnpvlmskyirteqinfndukrfxkjmdnkwwzmr") re.allchar re.allchar (str.to_re "tuzrnpblkuvlsibxsbkftxuaonlsopthxjavff") (re.* re.allchar) (str.to_re "wobbqjyktnspdnrzzxbvmpcvpamjuhhwd") (re.* re.allchar) (str.to_re "vgzziknoknfgjkb") (re.* re.allchar) (str.to_re "ho") (re.* re.allchar) (str.to_re "cjpmqcamkprmfzi") (re.* re.allchar) (str.to_re "iaqgvm") (re.* re.allchar) (str.to_re "fstlozmjopnijgqzklwvoglzgpx") re.allchar (str.to_re "nrvjebxrielsklfntezhyxywwmvl") (re.* re.allchar) (str.to_re "lerstziqycbikftigreoizfu") re.allchar (str.to_re "hpqdwfrdfumcnssfkawyrsrecucstpmwqesourhzhfqlszkatxvhrjajsrjssx") re.allchar (str.to_re "ubnlscavduvhyggytykjulkymcnodgrzrsfbegmnlpaxeagrnzhzrxn") re.allchar (str.to_re "rw") re.allchar (str.to_re "pkamkojmjbubbzh") (re.* re.allchar) (str.to_re "pzqvpvyydufkunsdarscsdbkhg") re.allchar (str.to_re "gbpxp") re.allchar (str.to_re "byeudqlrslwpqupgkthrmaqpqqiekiacbawwxivtvhatnebstzpzfpwkfarlfspnry") (re.* re.allchar) (str.to_re "vuxakpicpbmlm") (re.* re.allchar) (str.to_re "xewtpsll") (re.* re.allchar) (str.to_re "hqdsnjjjswtcoajlxrqmw") (re.* re.allchar) (str.to_re "ylecmbyyxssokjjdehjjj") (re.* re.allchar) (str.to_re "y") (re.* re.allchar) (str.to_re "yav") re.allchar (str.to_re "orxhegbkdoifhgqljwtr") (re.* re.allchar) (str.to_re "okptnsvicxzkxbtzo") re.allchar (str.to_re "qwcpkvcyzaem") re.allchar (str.to_re "lihylhfbgnxiugefyluc") re.allchar (str.to_re "kbv") re.allchar (str.to_re "ecgshywtanz") re.allchar (str.to_re "tzdkvijl") re.allchar (str.to_re "ocydhhkscszaglwczfaadspowhszh") re.allchar (str.to_re "rxtnd") (re.* re.allchar) (str.to_re "eetpzxqvrqhntxpcdnblmvlyg") (re.* re.allchar) (str.to_re "nybaiezr") re.allchar (str.to_re "itdgtfpuqatphe") (re.* re.allchar) (str.to_re "hdfd") re.allchar (str.to_re "snwvbgq") re.allchar (str.to_re "m") re.allchar (str.to_re "hophcmohpklxorglzievof") re.allchar (str.to_re "rrvporqwvztuhrtcljsumaqhhsslbgabnu") (re.* re.allchar) (str.to_re "rzqq") re.allchar (str.to_re "iq") (re.* re.allchar) (str.to_re "fp") re.allchar (str.to_re "q") re.allchar (str.to_re "dzu") (re.* re.allchar) (str.to_re "scahycqyfy") re.allchar (str.to_re "ejkbfollzwlxbjuftcmwmpbayvwdmxumszlsyvbizzqwnoecktdln") re.allchar (str.to_re "oogm") (re.* re.allchar) (str.to_re "r") (re.* re.allchar) (str.to_re "dfkifgxsurbdvudeicyt") re.allchar (str.to_re "kzyrpkyux") re.allchar (str.to_re "eeai") (re.* re.allchar) (str.to_re "nasmrywll") re.allchar (str.to_re "ftcglrswduutvluqhhrrjdblaauhkjckbwf") (re.* re.allchar) (str.to_re "ruxjfq") re.allchar (str.to_re "pfvyzbyspbpon") (re.* re.allchar) (str.to_re "ugsfvfetpferroixixt") (re.* re.allchar) (str.to_re "zwuaqmbfhm") re.allchar (str.to_re "cngnfdafmpwfkzjm") (re.* re.allchar) (str.to_re "zmnqdzkxnxpv") re.allchar (str.to_re "st") (re.* re.allchar) re.allchar (str.to_re "j") re.allchar (str.to_re "cv") (re.* re.allchar) (str.to_re "ulzfylrbzfip") re.allchar (str.to_re "pnwxdhrdqifcws") re.allchar (str.to_re "veycianhnebfzzyuany") (re.* re.allchar) (re.* re.allchar) (str.to_re "hvcfs") re.allchar (str.to_re "hdqqv") (re.* re.allchar) (str.to_re "k") re.allchar (str.to_re "tldvmwlkjsufc") (re.* re.allchar) (str.to_re "lvrxkkws") (re.* re.allchar) (str.to_re "jgohjkneujtadtnpmyfegofhwyiltsqybihzhepcs") re.allchar (str.to_re "plfeye") re.allchar (str.to_re "smlvlhmdcldiukzzhtpzjwqqyfpll") re.allchar (str.to_re "ecilizrcby") re.allchar (str.to_re "rliiztf") (re.* re.allchar) (str.to_re "s") re.allchar (str.to_re "v") (re.* re.allchar) (str.to_re "ptbcb") re.allchar (str.to_re "afcysodnqkhmcgogxlexkeyp") re.allchar (str.to_re "seqvrffexvazsv") re.allchar (str.to_re "evofgqykfhzx") (re.* re.allchar) (str.to_re "jmpwhj") re.allchar re.allchar (str.to_re "cmvfhjmbpsuqnvqpoipchwfuofzixmqdceoogxndmowxm") (re.* re.allchar) (str.to_re "gitzjmolymp") re.allchar (str.to_re "cryjxmdsliwjmexrfnnlxwxwkukqascfpunydrq") re.allchar (str.to_re "phbgbk") (re.* re.allchar) (str.to_re "s") (re.* re.allchar) (str.to_re "bfacyfutgeneelsodeltccwjnguetndnpenwijgjzb") re.allchar (str.to_re "efsdt") re.allchar (str.to_re "evvqi") re.allchar (str.to_re "mzgjfd") (re.* re.allchar) (str.to_re "gquvtwukhykxjtzkhxoocdlixylmbifq") )  )))
(check-sat)
(exit)
